NAME: random-9-3549
TYPE: TSP
COMMENT: size=9 seed=3549
DIMENSION: 20
EDGE_WEIGHT_TYPE: EUC_2D
NODE_COORD_SECTION
+0 43 199
-0 43 199
+1 740 609
-1 254 399
+2 457 142
-2 993 164
+3 105 124
-3 580 434
+4 16 752
-4 240 649
+5 140 42
-5 11 799
+6 499 327
-6 429 582
+7 12 179
-7 443 339
+8 731 887
-8 726 409
+9 956 253
-9 372 217
PRECEDENCE_SECTION
+0 -0
+1 -1
+2 -2
+3 -3
+4 -4
+5 -5
+6 -6
+7 -7
+8 -8
+9 -9
EOF
